language ESSENCE' 1.0

letting C_FunctionND be
        [[0, 0, 0, 0, 0, 0, 0, 0, 0, 0, 0, 0, 0, 0, 0, 0, 0, 0, 0, 0, 0; int(0..20)],
         [1, 0, 0, 0, 0, 0, 0, 0, 0, 0, 0, 0, 0, 0, 0, 0, 0, 0, 0, 0, 0; int(0..20)],
         [1, 0, 0, 0, 0, 0, 0, 0, 0, 0, 0, 0, 0, 0, 0, 0, 0, 0, 0, 0, 0; int(0..20)],
         [1, 0, 0, 0, 0, 0, 0, 0, 0, 0, 0, 0, 0, 0, 0, 0, 0, 0, 0, 0, 0; int(0..20)],
         [1, 0, 0, 0, 0, 0, 0, 0, 0, 0, 0, 0, 0, 0, 0, 0, 0, 0, 0, 0, 0; int(0..20)],
         [1, 0, 0, 0, 0, 0, 0, 0, 0, 0, 0, 0, 0, 0, 0, 0, 0, 0, 0, 0, 0; int(0..20)],
         [1, 0, 0, 0, 0, 0, 0, 0, 0, 0, 0, 0, 0, 0, 0, 0, 0, 0, 0, 0, 0; int(0..20)],
         [1, 0, 0, 0, 0, 0, 0, 0, 0, 0, 0, 0, 0, 0, 0, 0, 0, 0, 0, 0, 0; int(0..20)],
         [1, 0, 0, 0, 0, 0, 0, 0, 0, 0, 0, 0, 0, 0, 0, 0, 0, 0, 0, 0, 0; int(0..20)],
         [0, 1, 1, 0, 0, 0, 0, 0, 1, 0, 0, 0, 0, 0, 0, 0, 0, 0, 0, 0, 0; int(0..20)],
         [0, 1, 0, 1, 1, 0, 0, 0, 0, 0, 0, 0, 0, 0, 0, 0, 0, 0, 0, 0, 0; int(0..20)],
         [0, 1, 0, 0, 0, 1, 0, 0, 0, 0, 0, 0, 0, 0, 0, 0, 0, 0, 0, 0, 0; int(0..20)],
         [0, 1, 0, 0, 0, 0, 1, 1, 0, 0, 0, 0, 0, 0, 0, 0, 0, 0, 0, 0, 0; int(0..20)],
         [0, 0, 1, 1, 0, 1, 0, 1, 0, 0, 0, 0, 0, 0, 0, 0, 0, 0, 0, 0, 0; int(0..20)],
         [0, 0, 1, 0, 1, 0, 1, 0, 0, 0, 0, 0, 0, 0, 0, 0, 0, 0, 0, 0, 0; int(0..20)],
         [0, 0, 0, 1, 0, 0, 1, 0, 0, 0, 0, 0, 0, 0, 0, 0, 0, 0, 0, 0, 0; int(0..20)],
         [0, 0, 0, 1, 0, 0, 0, 0, 1, 0, 0, 0, 0, 0, 0, 0, 0, 0, 0, 0, 0; int(0..20)],
         [0, 0, 0, 0, 1, 1, 0, 0, 0, 0, 0, 0, 0, 0, 0, 0, 0, 0, 0, 0, 0; int(0..20)],
         [0, 0, 0, 0, 1, 0, 0, 1, 1, 0, 0, 0, 0, 0, 0, 0, 0, 0, 0, 0, 0; int(0..20)],
         [0, 0, 0, 0, 0, 1, 1, 0, 1, 0, 0, 0, 0, 0, 0, 0, 0, 0, 0, 0, 0; int(0..20)],
         [0, 0, 0, 0, 0, 0, 0, 0, 0, 1, 1, 1, 1, 1, 1, 1, 1, 1, 1, 1, 0; int(0..20)];
             int(0..20)]
$ Visualisation for C_FunctionND
$ 0 0 0 0 0 0 0 0 0 0 0 0 0 0 0 0 0 0 0 0 0
$ 1 0 0 0 0 0 0 0 0 0 0 0 0 0 0 0 0 0 0 0 0
$ 1 0 0 0 0 0 0 0 0 0 0 0 0 0 0 0 0 0 0 0 0
$ 1 0 0 0 0 0 0 0 0 0 0 0 0 0 0 0 0 0 0 0 0
$ 1 0 0 0 0 0 0 0 0 0 0 0 0 0 0 0 0 0 0 0 0
$ 1 0 0 0 0 0 0 0 0 0 0 0 0 0 0 0 0 0 0 0 0
$ 1 0 0 0 0 0 0 0 0 0 0 0 0 0 0 0 0 0 0 0 0
$ 1 0 0 0 0 0 0 0 0 0 0 0 0 0 0 0 0 0 0 0 0
$ 1 0 0 0 0 0 0 0 0 0 0 0 0 0 0 0 0 0 0 0 0
$ 0 1 1 0 0 0 0 0 1 0 0 0 0 0 0 0 0 0 0 0 0
$ 0 1 0 1 1 0 0 0 0 0 0 0 0 0 0 0 0 0 0 0 0
$ 0 1 0 0 0 1 0 0 0 0 0 0 0 0 0 0 0 0 0 0 0
$ 0 1 0 0 0 0 1 1 0 0 0 0 0 0 0 0 0 0 0 0 0
$ 0 0 1 1 0 1 0 1 0 0 0 0 0 0 0 0 0 0 0 0 0
$ 0 0 1 0 1 0 1 0 0 0 0 0 0 0 0 0 0 0 0 0 0
$ 0 0 0 1 0 0 1 0 0 0 0 0 0 0 0 0 0 0 0 0 0
$ 0 0 0 1 0 0 0 0 1 0 0 0 0 0 0 0 0 0 0 0 0
$ 0 0 0 0 1 1 0 0 0 0 0 0 0 0 0 0 0 0 0 0 0
$ 0 0 0 0 1 0 0 1 1 0 0 0 0 0 0 0 0 0 0 0 0
$ 0 0 0 0 0 1 1 0 1 0 0 0 0 0 0 0 0 0 0 0 0
$ 0 0 0 0 0 0 0 0 0 1 1 1 1 1 1 1 1 1 1 1 0

letting J_FunctionND be
        [[0, 1, 2, 3, 4, 5, 6, 7, 8, 9, 10, 11, 12, 13, 14, 15, 16, 17, 18, 19, 20; int(0..20)],
         [1, 1, 9, 10, 10, 11, 12, 12, 9, 9, 10, 11, 12, 20, 20, 20, 20, 20, 20, 20, 20; int(0..20)],
         [2, 9, 2, 13, 14, 13, 14, 13, 9, 9, 20, 20, 20, 13, 14, 20, 20, 20, 20, 20, 20; int(0..20)],
         [3, 10, 13, 3, 10, 13, 15, 13, 16, 20, 10, 20, 20, 13, 20, 15, 16, 20, 20, 20, 20; int(0..20)],
         [4, 10, 14, 10, 4, 17, 14, 18, 18, 20, 10, 20, 20, 20, 14, 20, 20, 17, 18, 20, 20; int(0..20)],
         [5, 11, 13, 13, 17, 5, 19, 13, 19, 20, 20, 11, 20, 13, 20, 20, 20, 17, 20, 19, 20; int(0..20)],
         [6, 12, 14, 15, 14, 19, 6, 12, 19, 20, 20, 20, 12, 20, 14, 15, 20, 20, 20, 19, 20; int(0..20)],
         [7, 12, 13, 13, 18, 13, 12, 7, 18, 20, 20, 20, 12, 13, 20, 20, 20, 20, 18, 20, 20; int(0..20)],
         [8, 9, 9, 16, 18, 19, 19, 18, 8, 9, 20, 20, 20, 20, 20, 20, 16, 20, 18, 19, 20; int(0..20)],
         [9, 9, 9, 20, 20, 20, 20, 20, 9, 9, 20, 20, 20, 20, 20, 20, 20, 20, 20, 20, 20; int(0..20)],
         [10, 10, 20, 10, 10, 20, 20, 20, 20, 20, 10, 20, 20, 20, 20, 20, 20, 20, 20, 20, 20; int(0..20)],
         [11, 11, 20, 20, 20, 11, 20, 20, 20, 20, 20, 11, 20, 20, 20, 20, 20, 20, 20, 20, 20; int(0..20)],
         [12, 12, 20, 20, 20, 20, 12, 12, 20, 20, 20, 20, 12, 20, 20, 20, 20, 20, 20, 20, 20; int(0..20)],
         [13, 20, 13, 13, 20, 13, 20, 13, 20, 20, 20, 20, 20, 13, 20, 20, 20, 20, 20, 20, 20; int(0..20)],
         [14, 20, 14, 20, 14, 20, 14, 20, 20, 20, 20, 20, 20, 20, 14, 20, 20, 20, 20, 20, 20; int(0..20)],
         [15, 20, 20, 15, 20, 20, 15, 20, 20, 20, 20, 20, 20, 20, 20, 15, 20, 20, 20, 20, 20; int(0..20)],
         [16, 20, 20, 16, 20, 20, 20, 20, 16, 20, 20, 20, 20, 20, 20, 20, 16, 20, 20, 20, 20; int(0..20)],
         [17, 20, 20, 20, 17, 17, 20, 20, 20, 20, 20, 20, 20, 20, 20, 20, 20, 17, 20, 20, 20; int(0..20)],
         [18, 20, 20, 20, 18, 20, 20, 18, 18, 20, 20, 20, 20, 20, 20, 20, 20, 20, 18, 20, 20; int(0..20)],
         [19, 20, 20, 20, 20, 19, 19, 20, 19, 20, 20, 20, 20, 20, 20, 20, 20, 20, 20, 19, 20; int(0..20)],
         [20, 20, 20, 20, 20, 20, 20, 20, 20, 20, 20, 20, 20, 20, 20, 20, 20, 20, 20, 20, 20; int(0..20)];
             int(0..20)]
$ Visualisation for J_FunctionND
$  0  1  2  3  4  5  6  7  8  9 10 11 12 13 14 15 16 17 18 19 20
$  1  1  9 10 10 11 12 12  9  9 10 11 12 20 20 20 20 20 20 20 20
$  2  9  2 13 14 13 14 13  9  9 20 20 20 13 14 20 20 20 20 20 20
$  3 10 13  3 10 13 15 13 16 20 10 20 20 13 20 15 16 20 20 20 20
$  4 10 14 10  4 17 14 18 18 20 10 20 20 20 14 20 20 17 18 20 20
$  5 11 13 13 17  5 19 13 19 20 20 11 20 13 20 20 20 17 20 19 20
$  6 12 14 15 14 19  6 12 19 20 20 20 12 20 14 15 20 20 20 19 20
$  7 12 13 13 18 13 12  7 18 20 20 20 12 13 20 20 20 20 18 20 20
$  8  9  9 16 18 19 19 18  8  9 20 20 20 20 20 20 16 20 18 19 20
$  9  9  9 20 20 20 20 20  9  9 20 20 20 20 20 20 20 20 20 20 20
$ 10 10 20 10 10 20 20 20 20 20 10 20 20 20 20 20 20 20 20 20 20
$ 11 11 20 20 20 11 20 20 20 20 20 11 20 20 20 20 20 20 20 20 20
$ 12 12 20 20 20 20 12 12 20 20 20 20 12 20 20 20 20 20 20 20 20
$ 13 20 13 13 20 13 20 13 20 20 20 20 20 13 20 20 20 20 20 20 20
$ 14 20 14 20 14 20 14 20 20 20 20 20 20 20 14 20 20 20 20 20 20
$ 15 20 20 15 20 20 15 20 20 20 20 20 20 20 20 15 20 20 20 20 20
$ 16 20 20 16 20 20 20 20 16 20 20 20 20 20 20 20 16 20 20 20 20
$ 17 20 20 20 17 17 20 20 20 20 20 20 20 20 20 20 20 17 20 20 20
$ 18 20 20 20 18 20 20 18 18 20 20 20 20 20 20 20 20 20 18 20 20
$ 19 20 20 20 20 19 19 20 19 20 20 20 20 20 20 20 20 20 20 19 20
$ 20 20 20 20 20 20 20 20 20 20 20 20 20 20 20 20 20 20 20 20 20

letting M_FunctionND be
        [[0, 0, 0, 0, 0, 0, 0, 0, 0, 0, 0, 0, 0, 0, 0, 0, 0, 0, 0, 0, 0; int(0..20)],
         [0, 1, 0, 0, 0, 0, 0, 0, 0, 1, 1, 1, 1, 0, 0, 0, 0, 0, 0, 0, 1; int(0..20)],
         [0, 0, 2, 0, 0, 0, 0, 0, 0, 2, 0, 0, 0, 2, 2, 0, 0, 0, 0, 0, 2; int(0..20)],
         [0, 0, 0, 3, 0, 0, 0, 0, 0, 0, 3, 0, 0, 3, 0, 3, 3, 0, 0, 0, 3; int(0..20)],
         [0, 0, 0, 0, 4, 0, 0, 0, 0, 0, 4, 0, 0, 0, 4, 0, 0, 4, 4, 0, 4; int(0..20)],
         [0, 0, 0, 0, 0, 5, 0, 0, 0, 0, 0, 5, 0, 5, 0, 0, 0, 5, 0, 5, 5; int(0..20)],
         [0, 0, 0, 0, 0, 0, 6, 0, 0, 0, 0, 0, 6, 0, 6, 6, 0, 0, 0, 6, 6; int(0..20)],
         [0, 0, 0, 0, 0, 0, 0, 7, 0, 0, 0, 0, 7, 7, 0, 0, 0, 0, 7, 0, 7; int(0..20)],
         [0, 0, 0, 0, 0, 0, 0, 0, 8, 8, 0, 0, 0, 0, 0, 0, 8, 0, 8, 8, 8; int(0..20)],
         [0, 1, 2, 0, 0, 0, 0, 0, 8, 9, 1, 1, 1, 2, 2, 0, 8, 0, 8, 8, 9; int(0..20)],
         [0, 1, 0, 3, 4, 0, 0, 0, 0, 1, 10, 1, 1, 3, 4, 3, 3, 4, 4, 0, 10; int(0..20)],
         [0, 1, 0, 0, 0, 5, 0, 0, 0, 1, 1, 11, 1, 5, 0, 0, 0, 5, 0, 5, 11; int(0..20)],
         [0, 1, 0, 0, 0, 0, 6, 7, 0, 1, 1, 1, 12, 7, 6, 6, 0, 0, 7, 6, 12; int(0..20)],
         [0, 0, 2, 3, 0, 5, 0, 7, 0, 2, 3, 5, 7, 13, 2, 3, 3, 5, 7, 5, 13; int(0..20)],
         [0, 0, 2, 0, 4, 0, 6, 0, 0, 2, 4, 0, 6, 2, 14, 6, 0, 4, 4, 6, 14; int(0..20)],
         [0, 0, 0, 3, 0, 0, 6, 0, 0, 0, 3, 0, 6, 3, 6, 15, 3, 0, 0, 6, 15; int(0..20)],
         [0, 0, 0, 3, 0, 0, 0, 0, 8, 8, 3, 0, 0, 3, 0, 3, 16, 0, 8, 8, 16; int(0..20)],
         [0, 0, 0, 0, 4, 5, 0, 0, 0, 0, 4, 5, 0, 5, 4, 0, 0, 17, 4, 5, 17; int(0..20)],
         [0, 0, 0, 0, 4, 0, 0, 7, 8, 8, 4, 0, 7, 7, 4, 0, 8, 4, 18, 8, 18; int(0..20)],
         [0, 0, 0, 0, 0, 5, 6, 0, 8, 8, 0, 5, 6, 5, 6, 6, 8, 5, 8, 19, 19; int(0..20)],
         [0, 1, 2, 3, 4, 5, 6, 7, 8, 9, 10, 11, 12, 13, 14, 15, 16, 17, 18, 19, 20; int(0..20)];
             int(0..20)]
$ Visualisation for M_FunctionND
$  0  0  0  0  0  0  0  0  0  0  0  0  0  0  0  0  0  0  0  0  0
$  0  1  0  0  0  0  0  0  0  1  1  1  1  0  0  0  0  0  0  0  1
$  0  0  2  0  0  0  0  0  0  2  0  0  0  2  2  0  0  0  0  0  2
$  0  0  0  3  0  0  0  0  0  0  3  0  0  3  0  3  3  0  0  0  3
$  0  0  0  0  4  0  0  0  0  0  4  0  0  0  4  0  0  4  4  0  4
$  0  0  0  0  0  5  0  0  0  0  0  5  0  5  0  0  0  5  0  5  5
$  0  0  0  0  0  0  6  0  0  0  0  0  6  0  6  6  0  0  0  6  6
$  0  0  0  0  0  0  0  7  0  0  0  0  7  7  0  0  0  0  7  0  7
$  0  0  0  0  0  0  0  0  8  8  0  0  0  0  0  0  8  0  8  8  8
$  0  1  2  0  0  0  0  0  8  9  1  1  1  2  2  0  8  0  8  8  9
$  0  1  0  3  4  0  0  0  0  1 10  1  1  3  4  3  3  4  4  0 10
$  0  1  0  0  0  5  0  0  0  1  1 11  1  5  0  0  0  5  0  5 11
$  0  1  0  0  0  0  6  7  0  1  1  1 12  7  6  6  0  0  7  6 12
$  0  0  2  3  0  5  0  7  0  2  3  5  7 13  2  3  3  5  7  5 13
$  0  0  2  0  4  0  6  0  0  2  4  0  6  2 14  6  0  4  4  6 14
$  0  0  0  3  0  0  6  0  0  0  3  0  6  3  6 15  3  0  0  6 15
$  0  0  0  3  0  0  0  0  8  8  3  0  0  3  0  3 16  0  8  8 16
$  0  0  0  0  4  5  0  0  0  0  4  5  0  5  4  0  0 17  4  5 17
$  0  0  0  0  4  0  0  7  8  8  4  0  7  7  4  0  8  4 18  8 18
$  0  0  0  0  0  5  6  0  8  8  0  5  6  5  6  6  8  5  8 19 19
$  0  1  2  3  4  5  6  7  8  9 10 11 12 13 14 15 16 17 18 19 20

letting R_Function1D be [0, 1, 1, 1, 1, 1, 1, 1, 1, 2, 2, 2, 2, 2, 2, 2, 2, 2, 2, 2, 3; int(0..20)]
